1410.74
0 20 12 8 2 1 10 11 4 6 15 13 14 7 9 3 5 0
0 16 26 23 21 17 19 25 24 22 27 33 34 36 35 28 30 31 32 29 47 18 0
0 37 46 50 49 44 41 39 38 42 48 51 45 43 40 52 79 0
0 62 64 65 61 66 63 54 57 59 60 58 55 56 53 67 88 0
0 69 70 74 72 75 80 78 77 76 71 73 68 83 81 82 0
0 98 100 97 94 96 95 106 101 99 93 91 85 84 90 89 92 87 86 0
0 115 110 114 118 109 108 113 117 112 116 103 104 107 105 102 111 119 120 0
